100
128
10
52
15
25
23
3
22
11
40
21
6
2
7
16
22
16
15
8
10
3
28
47
8
7
19
19
20
14
2
18
49
32
18
25
13
4
25
13
10
13
1
24
3
3
23
34
30
6
17
13
18
21
44
12
6
15
14
26
4
19
9
7
9
9
4
15
50
13
44
2
13
7
49
5
41
14
29
64
39
13
30
52
20
24
21
37
51
62
20
35
27
20
44
31
4
56
1
28
64
64